p cnf 7230 16
-3440 -3446 -3450 -3897 3898 0
3897 -3899 0
3440 -3899 0
-1582 -3428 3892 0
1582 -3893 0
3446 -3899 0
-3898 3899 0
-3430 3895 0
3894 -3895 0
3430 -3894 0
-3892 3893 0
3428 -3893 0
-3432 3897 0
3896 -3897 0
3432 -3896 0
3450 -3899 0
